language Essence 1.3

letting class be
        function(1 --> 5, 2 --> 5, 3 --> 9, 4 --> 6, 5 --> 7, 6 --> 8, 7 --> 7, 8 --> 7, 9 --> 4, 10 --> 2, 11 --> 1,
                 12 --> 7, 13 --> 2, 14 --> 2, 15 --> 8, 16 --> 6, 17 --> 1, 18 --> 8, 19 --> 3, 20 --> 7, 21 --> 6,
                 22 --> 9, 23 --> 2, 24 --> 10, 25 --> 3, 26 --> 5, 27 --> 3, 28 --> 3, 29 --> 4, 30 --> 9)
letting deck_length be 98
letting deck_width be 26
letting length be
        function(1 --> 1, 2 --> 1, 3 --> 1, 4 --> 1, 5 --> 1, 6 --> 1, 7 --> 1, 8 --> 1, 9 --> 1, 10 --> 1, 11 --> 2,
                 12 --> 1, 13 --> 26, 14 --> 1, 15 --> 1, 16 --> 1, 17 --> 1, 18 --> 2, 19 --> 1, 20 --> 1, 21 --> 1,
                 22 --> 2, 23 --> 1, 24 --> 1, 25 --> 1, 26 --> 1, 27 --> 1, 28 --> 1, 29 --> 2, 30 --> 1)
letting n_classes be 10
letting n_containers be 30
letting separation be function({1, 3} --> 87, {4, 6} --> 89, {5, 7} --> 8)
letting width be
        function(1 --> 12, 2 --> 14, 3 --> 26, 4 --> 10, 5 --> 12, 6 --> 20, 7 --> 19, 8 --> 19, 9 --> 10, 10 --> 12,
                 11 --> 3, 12 --> 23, 13 --> 26, 14 --> 25, 15 --> 19, 16 --> 9, 17 --> 23, 18 --> 1, 19 --> 8,
                 20 --> 20, 21 --> 23, 22 --> 18, 23 --> 8, 24 --> 9, 25 --> 7, 26 --> 23, 27 --> 26, 28 --> 13,
                 29 --> 2, 30 --> 7)
